liuqid Si volume 18.2961 A^3            
   10.5848603138397     
     1.0000000000000000    0.0000000000000000    0.0000000000000000
     0.0000000000000000    1.0000000000000000    0.0000000000000000
     0.0000000000000000    0.0000000000000000    1.0000000000000000
   Si
    64
Direct
  0.0435107661348291  0.4238137369545310  0.3693053590219246
  0.5790511520916133  0.3127499289466537  0.1410837438367655
  0.6158385018115503  0.9324925499300601  0.6622639132291843
  0.2698082766212940  0.7160399697601502  0.4660584052487478
  0.1799117101291590  0.3260877924128271  0.7220606329223784
  0.9533234098970390  0.7786432928424376  0.8842974423794414
  0.1613693032508803  0.2225802446477690  0.1161106826500874
  0.7347267130262685  0.3023258376729788  0.7633737937754230
  0.1640374613939616  0.2379311142135609  0.5274168973086445
  0.0802133682305551  0.5584054235453871  0.6117466628435938
  0.5054607160285607  0.1429922168761965  0.3652586866163915
  0.6229702933090863  0.0925390254149571  0.1716982351294401
  0.8380009118348263  0.9463378870379408  0.6865638503066190
  0.9581612217919393  0.2100221126669386  0.3436765686695274
  0.6508575769484453  0.5323423138337108  0.1982014909723823
  0.7720814710967037  0.4016377677150486  0.2884456956574577
  0.5575345120161398  0.1304581408607605  0.9868822178822456
  0.3476427126619909  0.1879594123376743  0.9117428094727172
  0.8042726434910670  0.0430385732035592  0.4495465185506538
  0.1663598371532757  0.9396490073522400  0.6285770741371132
  0.9212283287350141  0.5324478883730099  0.1259749412306217
  0.1381613959665454  0.4768073338493008  0.0014388116642922
  0.8991192405320566  0.5971801543155162  0.3445064382785616
  0.4363720571934542  0.3633338804690301  0.5542882196179698
  0.9667048923222517  0.4384839313827115  0.7832509152149918
  0.0871359294282363  0.6967066097057348  0.0645395330861879
  0.8497146701063963  0.2111783003332916  0.9183363712741232
  0.4429094038318431  0.6462929527523044  0.1479144567211906
  0.3589227640637961  0.8724533715086326  0.8999428134991131
  0.6809470064792517  0.3111634123169645  0.4985290602525567
  0.9016327650942965  0.7621868256103005  0.5607163392515503
  0.7784514006935223  0.5548887040635153  0.6374991795833669
  0.2256890393461235  0.4550605762410772  0.4812686010549438
  0.7072150357135718  0.6624275828401868  0.3724343990591367
  0.4896092829263990  0.6930304502760377  0.9041491089405600
  0.5104826664613619  0.5229341162803172  0.4283747630983250
  0.4853805761016853  0.2232127378964014  0.7164179222916646
  0.4655280331562240  0.5049197605683700  0.7828383593642533
  0.2105117784371833  0.1532860539398023  0.3291086810112408
  0.1034358746183543  0.6675426864419114  0.3129864393931077
  0.0191081832359005  0.8754054722940660  0.4116887040985305
  0.9040389983608083  0.9229500704689955  0.0884692509899162
  0.6882042762552960  0.7861149172311515  0.9782006084451106
  0.3903077920811583  0.9244568598662171  0.4032650520622170
  0.9521946734565337  0.0281471732727724  0.8599455631794714
  0.3608051593133197  0.0545331983398056  0.6510182984817473
  0.1887519952169044  0.9398587329185346  0.2753857832302795
  0.8453054421180195  0.1523541859687584  0.1533251501433560
  0.9537346714256828  0.3297871024768745  0.5661281297359850
  0.2850834404110342  0.8083821751204375  0.1039703019684630
  0.3201677035035098  0.5750766079858591  0.2957107779975220
  0.5502290559827347  0.7986403095466135  0.4759315732066208
  0.2180507507862812  0.5516291059707618  0.7914153639843317
  0.1680597886970425  0.0396031677659818  0.8449493744923834
  0.7354064361868384  0.5770791869833251  0.0048607607450085
  0.4147714166468456  0.6861348353260320  0.6367582994468174
  0.1967908687598354  0.7739304417008129  0.7828176971534394
  0.0754367287970239  0.2213150838540266  0.8889950771721922
  0.3830052541457536  0.3698048033961531  0.0455350945913972
  0.7374324682104171  0.7295662768000092  0.7539978968860415
  0.6409804477610551  0.9634266507616309  0.8818314388440881
  0.6287759327492451  0.3943134193111441  0.9350401884453405
  0.1083673813513317  0.9930968797420539  0.0668947666183653
  0.6204514478206684  0.1044314945081797  0.5467055445828787
 
  0.16589598E-01  0.44080466E-02  0.28548466E-02
 -0.10365392E-01 -0.13042478E-01  0.46806459E-02
  0.17800115E-01  0.13339741E-02 -0.78758171E-02
  0.15361794E-02  0.96601295E-02  0.36498165E-02
 -0.52955140E-02  0.20500605E-02 -0.53110548E-02
  0.20423804E-02  0.30023446E-02 -0.18427366E-02
  0.82573260E-02  0.35098529E-02  0.57079050E-02
 -0.17043245E-01 -0.24288077E-02 -0.73051782E-02
  0.67471563E-02  0.89178364E-02  0.35592001E-02
  0.33863461E-02 -0.63633100E-02  0.11680315E-01
  0.57618116E-02 -0.11741440E-03 -0.10199414E-01
  0.40255835E-02 -0.42811070E-02  0.29919129E-02
 -0.20819076E-02 -0.41661608E-02  0.12099466E-01
 -0.32946852E-02 -0.66965248E-02 -0.87426766E-02
 -0.25575310E-02 -0.72909122E-02  0.38439803E-02
 -0.58658319E-02 -0.85141289E-02 -0.30045999E-02
 -0.99504629E-02 -0.70863325E-02 -0.96758923E-02
  0.60226750E-02  0.62259907E-02 -0.95786652E-03
  0.12473424E-02 -0.10887646E-01  0.30858646E-02
  0.11041168E-01  0.23320955E-02 -0.16192007E-01
  0.86195115E-03 -0.72967644E-02 -0.64204133E-02
  0.16587506E-03  0.83830545E-03 -0.18349744E-02
  0.54875461E-02  0.16182436E-03 -0.39902978E-02
  0.79490860E-02 -0.72568465E-02 -0.60530793E-02
  0.41365071E-02 -0.28307513E-02  0.91264189E-02
  0.33184775E-02  0.25109628E-02 -0.64006263E-03
 -0.36842013E-02  0.84356023E-02 -0.47541364E-03
  0.92264372E-02 -0.60054081E-02 -0.71938110E-02
 -0.14501127E-01 -0.34533865E-02  0.48164025E-02
  0.36999561E-02  0.15138601E-02 -0.77083655E-02
  0.13331406E-01 -0.12145159E-01  0.12784773E-02
  0.23166825E-03 -0.20793887E-03  0.46879576E-02
 -0.12393856E-01 -0.77549691E-02 -0.85618990E-02
 -0.15875596E-02 -0.71134387E-02  0.13595063E-02
  0.42511635E-02  0.14208143E-01  0.62069504E-02
  0.60321792E-02  0.14683715E-01 -0.12311048E-01
 -0.10719410E-01  0.10072337E-02  0.81349301E-02
  0.47932143E-02 -0.43741188E-02  0.43328072E-02
  0.43630384E-02  0.34256128E-02  0.15892544E-02
  0.37604357E-02  0.41088603E-02 -0.96642694E-02
 -0.14099511E-01 -0.27190939E-02  0.19755140E-01
 -0.11871142E-01  0.54894333E-02  0.66267078E-02
 -0.11027042E-01 -0.65355850E-03 -0.11478131E-02
 -0.45834704E-02 -0.30251568E-02 -0.24541026E-02
 -0.45671394E-02  0.11434612E-01  0.29661584E-02
  0.53322597E-03 -0.26168675E-03 -0.30026709E-03
 -0.93280387E-02 -0.11763615E-01 -0.69089409E-02
  0.94947342E-03 -0.76377029E-02 -0.44391527E-02
 -0.70617782E-02  0.33162173E-02  0.67008828E-03
  0.87399664E-02  0.40438004E-02  0.73308415E-02
 -0.82361785E-02  0.72470062E-02 -0.10518529E-01
  0.10344580E-02  0.43083251E-02 -0.15324652E-03
  0.90040160E-02 -0.34225306E-02  0.53563284E-02
  0.55817381E-02 -0.14545076E-03  0.36751655E-02
  0.36021387E-02  0.14353727E-01  0.19714869E-02
  0.24979331E-03 -0.38982363E-02 -0.53333471E-02
 -0.32541332E-02 -0.15079178E-02  0.61570440E-03
 -0.23152837E-03  0.99470112E-02  0.77682076E-02
  0.61840940E-03  0.18095031E-02  0.32688258E-02
  0.48923751E-02 -0.91221529E-02  0.71237596E-02
 -0.42650405E-03  0.60575341E-02 -0.76106528E-03
 -0.17763094E-01 -0.48554616E-02 -0.58731498E-02
  0.48278833E-02  0.10766634E-01  0.48628139E-02
 -0.43098190E-02  0.72179113E-02  0.61726070E-02
